
<<< setup

Tried aggregator 1 time.
LP Presolve eliminated 113 rows and 87 columns.
Reduced LP has 2 rows, 12 columns, and 12 nonzeros.
Presolve time = 0.00 sec. (0.04 ticks)

Iteration log . . .
Iteration:     1   Dual objective     =          1665.723828
main returns 0

<<< main


<<< done

